p edge 659 1129
e 1 2
e 3 4
e 3 5
e 3 6
e 7 8
e 7 9
e 7 10
e 7 11
e 7 12
e 7 13
e 7 14
e 7 15
e 7 16
e 7 17
e 18 19
e 18 20
e 18 21
e 18 22
e 19 23
e 20 23
e 21 23
e 23 24
e 23 25
e 26 27
e 20 26
e 21 26
e 22 26
e 16 26
e 25 26
e 10 28
e 12 28
e 29 30
e 31 32
e 19 31
e 10 31
e 12 31
e 31 33
e 31 34
e 31 35
e 31 36
e 8 37
e 8 38
e 8 39
e 8 40
e 8 41
e 8 42
e 8 43
e 8 44
e 8 45
e 8 46
e 8 47
e 8 48
e 8 49
e 50 51
e 50 52
e 53 54
e 55 56
e 55 57
e 55 58
e 55 59
e 55 60
e 61 62
e 61 63
e 61 64
e 61 65
e 61 66
e 61 67
e 68 69
e 70 71
e 70 72
e 73 74
e 73 75
e 76 77
e 76 78
e 76 79
e 24 80
e 80 81
e 51 82
e 51 83
e 84 85
e 84 86
e 87 88
e 89 90
e 89 91
e 89 92
e 89 93
e 89 94
e 89 95
e 96 97
e 96 98
e 99 100
e 101 102
e 103 104
e 103 105
e 106 107
e 106 108
e 59 109
e 104 110
e 111 112
e 111 113
e 111 114
e 111 115
e 116 117
e 107 118
e 108 118
e 118 119
e 118 120
e 121 122
e 123 124
e 123 125
e 126 127
e 128 129
e 128 130
e 5 128
e 128 131
e 128 132
e 128 133
e 128 134
e 128 135
e 102 136
e 137 138
e 139 140
e 139 141
e 139 142
e 143 144
e 138 145
e 86 145
e 127 146
e 147 148
e 147 149
e 147 150
e 151 152
e 153 154
e 153 155
e 153 156
e 153 157
e 158 159
e 10 160
e 12 160
e 161 162
e 161 163
e 154 164
e 154 156
e 165 166
e 165 167
e 165 168
e 107 169
e 108 169
e 169 170
e 169 171
e 172 173
e 71 172
e 172 174
e 107 175
e 107 176
e 107 177
e 107 108
e 107 178
e 107 179
e 14 180
e 9 62
e 9 130
e 9 37
e 9 38
e 9 39
e 9 40
e 9 41
e 9 42
e 9 43
e 9 44
e 9 45
e 9 13
e 9 46
e 9 17
e 9 47
e 9 48
e 9 49
e 181 182
e 181 183
e 184 185
e 186 187
e 108 175
e 175 188
e 149 189
e 185 190
e 190 191
e 190 192
e 193 194
e 78 193
e 79 193
e 193 195
e 193 196
e 193 197
e 193 198
e 156 193
e 193 199
e 193 200
e 65 193
e 125 193
e 193 201
e 193 202
e 193 203
e 193 204
e 193 205
e 142 193
e 102 206
e 102 207
e 208 209
e 208 210
e 211 212
e 167 211
e 211 213
e 174 211
e 152 214
e 215 216
e 13 62
e 217 218
e 219 220
e 92 221
e 59 221
e 221 222
e 114 223
e 115 223
e 24 224
e 81 224
e 10 225
e 12 225
e 138 226
e 94 226
e 177 227
e 227 228
e 227 229
e 230 231
e 192 230
e 232 233
e 232 234
e 77 235
e 77 236
e 77 237
e 77 238
e 77 239
e 112 113
e 112 114
e 112 159
e 112 240
e 24 112
e 112 115
e 183 241
e 130 242
e 198 242
e 22 242
e 202 242
e 242 243
e 244 245
e 245 246
e 245 247
e 10 248
e 12 248
e 78 124
e 78 249
e 78 250
e 78 152
e 251 252
e 250 251
e 253 254
e 253 255
e 253 256
e 113 114
e 113 125
e 113 257
e 113 258
e 113 115
e 156 259
e 260 261
e 260 262
e 140 177
e 140 263
e 140 141
e 140 264
e 140 142
e 140 265
e 266 267
e 266 268
e 22 266
e 266 269
e 10 270
e 12 270
e 32 271
e 32 272
e 156 273
e 156 274
e 275 276
e 125 277
e 27 278
e 27 279
e 27 280
e 27 281
e 27 282
e 27 283
e 27 284
e 27 285
e 27 286
e 27 287
e 27 288
e 27 289
e 27 290
e 27 291
e 27 292
e 79 124
e 79 249
e 79 250
e 79 152
e 108 176
e 149 293
e 114 267
e 267 294
e 267 295
e 267 296
e 14 267
e 267 297
e 124 298
e 124 125
e 124 299
e 124 300
e 301 302
e 303 304
e 302 305
e 56 57
e 92 182
e 187 306
e 187 307
e 57 58
e 57 59
e 57 60
e 308 309
e 309 310
e 311 312
e 170 313
e 314 315
e 316 317
e 318 319
e 320 321
e 320 322
e 22 320
e 209 323
e 209 218
e 209 324
e 177 325
e 306 325
e 325 326
e 177 327
e 177 328
e 108 177
e 177 178
e 177 329
e 177 330
e 177 331
e 177 326
e 19 332
e 20 332
e 21 332
e 22 332
e 19 333
e 20 333
e 21 333
e 24 333
e 25 333
e 20 278
e 21 278
e 22 278
e 16 278
e 25 278
e 334 335
e 336 337
e 104 336
e 249 336
e 105 336
e 130 338
e 22 130
e 13 130
e 94 130
e 15 130
e 130 339
e 17 130
e 340 341
e 342 343
e 344 345
e 346 347
e 348 349
e 348 350
e 329 348
e 348 351
e 19 352
e 19 353
e 19 354
e 19 355
e 19 356
e 19 357
e 19 358
e 19 359
e 19 360
e 19 361
e 19 362
e 19 363
e 19 364
e 19 365
e 19 366
e 19 367
e 19 368
e 19 369
e 19 370
e 19 371
e 19 372
e 19 373
e 19 374
e 19 375
e 19 376
e 19 377
e 19 378
e 19 379
e 19 380
e 19 381
e 19 382
e 306 326
e 152 383
e 384 385
e 386 387
e 388 389
e 33 388
e 148 276
e 114 294
e 114 115
e 114 390
e 114 391
e 20 352
e 21 352
e 22 352
e 20 353
e 21 353
e 24 353
e 25 353
e 20 354
e 21 354
e 22 354
e 20 355
e 21 355
e 24 355
e 25 355
e 10 37
e 11 37
e 12 37
e 13 37
e 14 37
e 15 37
e 16 37
e 17 37
e 20 279
e 21 279
e 22 279
e 16 279
e 25 279
e 131 392
e 133 392
e 134 392
e 135 392
e 100 393
e 20 356
e 21 356
e 24 356
e 25 356
e 20 357
e 21 357
e 22 357
e 10 38
e 11 38
e 12 38
e 13 38
e 14 38
e 15 38
e 16 38
e 17 38
e 271 394
e 104 337
e 337 395
e 249 337
e 105 337
e 396 397
e 398 399
e 104 395
e 400 401
e 63 198
e 63 202
e 402 403
e 188 404
e 228 328
e 229 328
e 249 405
e 235 406
e 407 408
e 238 406
e 10 39
e 11 39
e 12 39
e 13 39
e 14 39
e 15 39
e 16 39
e 17 39
e 20 280
e 21 280
e 22 280
e 16 280
e 25 280
e 20 358
e 21 358
e 22 358
e 20 359
e 21 359
e 24 359
e 25 359
e 188 409
e 16 410
e 268 411
e 412 413
e 263 414
e 20 281
e 21 281
e 22 281
e 16 281
e 25 281
e 10 40
e 11 40
e 12 40
e 13 40
e 14 40
e 15 40
e 16 40
e 17 40
e 264 414
e 265 414
e 24 415
e 81 415
e 312 416
e 417 418
e 419 420
e 420 421
e 185 422
e 185 423
e 185 424
e 197 255
e 387 425
e 198 426
e 321 322
e 22 321
e 427 428
e 429 430
e 429 431
e 432 433
e 252 434
e 157 252
e 435 436
e 437 438
e 437 439
e 437 440
e 191 422
e 192 422
e 271 441
e 238 271
e 162 271
e 271 442
e 271 443
e 271 444
e 271 445
e 15 271
e 271 446
e 271 447
e 97 98
e 97 448
e 90 138
e 90 94
e 24 159
e 115 159
e 102 449
e 156 450
e 304 451
e 438 452
e 452 453
e 440 452
e 237 454
e 237 455
e 237 403
e 433 456
e 457 458
e 459 460
e 233 234
e 233 461
e 233 462
e 233 463
e 144 464
e 20 360
e 21 360
e 22 360
e 20 361
e 21 361
e 24 361
e 25 361
e 465 466
e 152 465
e 465 467
e 14 468
e 469 470
e 257 469
e 469 471
e 472 473
e 322 371
e 125 322
e 22 322
e 322 474
e 322 475
e 25 322
e 2 141
e 131 476
e 133 476
e 134 476
e 135 476
e 470 477
e 470 478
e 470 479
e 395 480
e 480 481
e 482 483
e 131 484
e 71 484
e 133 484
e 134 484
e 135 484
e 420 485
e 174 486
e 52 82
e 138 487
e 138 488
e 138 489
e 138 401
e 138 490
e 138 491
e 64 492
e 174 493
e 25 494
e 495 496
e 20 362
e 21 362
e 24 362
e 25 362
e 10 41
e 11 41
e 12 41
e 13 41
e 14 41
e 15 41
e 16 41
e 17 41
e 20 282
e 21 282
e 22 282
e 16 282
e 25 282
e 20 363
e 21 363
e 22 363
e 395 496
e 418 496
e 496 497
e 349 498
e 349 499
e 350 498
e 350 499
e 499 500
e 477 478
e 312 501
e 502 503
e 502 504
e 15 64
e 64 67
e 25 505
e 312 506
e 507 508
e 507 509
e 510 511
e 261 512
e 276 513
e 276 514
e 166 515
e 166 516
e 166 517
e 166 518
e 166 519
e 166 520
e 166 512
e 166 521
e 20 283
e 20 364
e 20 365
e 20 366
e 20 284
e 20 367
e 20 369
e 20 370
e 20 285
e 20 286
e 20 372
e 20 373
e 20 287
e 20 374
e 20 375
e 20 22
e 20 376
e 20 377
e 20 288
e 20 289
e 20 378
e 20 290
e 20 379
e 20 291
e 20 380
e 20 381
e 20 292
e 20 382
e 10 522
e 12 522
e 10 42
e 11 42
e 12 42
e 13 42
e 14 42
e 15 42
e 16 42
e 17 42
e 21 283
e 22 283
e 16 283
e 25 283
e 21 364
e 24 364
e 25 364
e 21 365
e 22 365
e 399 523
e 399 524
e 399 525
e 399 526
e 399 527
e 395 508
e 125 395
e 144 395
e 105 395
e 122 528
e 529 530
e 10 531
e 12 531
e 532 533
e 534 535
e 536 537
e 538 539
e 503 504
e 503 540
e 25 541
e 21 366
e 22 366
e 21 284
e 22 284
e 16 284
e 25 284
e 10 43
e 11 43
e 12 43
e 13 43
e 14 43
e 15 43
e 16 43
e 17 43
e 21 367
e 24 367
e 25 367
e 210 323
e 34 368
e 256 428
e 428 542
e 98 448
e 71 543
e 174 543
e 92 93
e 315 544
e 302 545
e 168 546
e 21 369
e 21 370
e 21 285
e 21 286
e 21 372
e 21 373
e 21 287
e 21 374
e 21 375
e 21 22
e 21 376
e 21 377
e 21 288
e 21 289
e 21 378
e 21 290
e 21 379
e 21 291
e 21 380
e 21 381
e 21 292
e 21 382
e 547 548
e 24 549
e 81 549
e 550 551
e 551 552
e 167 515
e 167 516
e 167 517
e 167 518
e 167 519
e 167 520
e 167 521
e 24 369
e 25 369
e 22 370
e 478 479
e 553 554
e 371 474
e 371 475
e 555 556
e 94 557
e 14 558
e 558 559
e 558 560
e 508 561
e 191 487
e 54 191
e 434 562
e 10 44
e 10 45
e 10 46
e 10 563
e 10 463
e 10 564
e 10 47
e 10 48
e 10 49
e 565 566
e 22 285
e 16 285
e 25 285
e 108 178
e 108 179
e 174 178
e 149 567
e 149 568
e 22 125
e 125 569
e 125 570
e 35 125
e 125 258
e 125 571
e 125 572
e 125 299
e 131 573
e 133 573
e 134 573
e 135 573
e 22 286
e 16 286
e 25 286
e 22 372
e 24 373
e 25 373
e 11 44
e 12 44
e 13 44
e 14 44
e 15 44
e 16 44
e 17 44
e 22 287
e 16 287
e 25 287
e 22 374
e 24 375
e 25 375
e 11 45
e 12 45
e 13 45
e 14 45
e 15 45
e 16 45
e 17 45
e 22 377
e 22 288
e 22 289
e 22 378
e 22 290
e 22 379
e 22 291
e 22 381
e 22 292
e 11 46
e 11 47
e 11 48
e 11 49
e 11 168
e 574 575
e 93 576
e 170 577
e 152 578
e 578 579
e 329 498
e 351 498
e 12 46
e 12 563
e 12 463
e 12 564
e 12 47
e 12 48
e 12 49
e 329 499
e 351 499
e 580 581
e 580 582
e 460 583
e 460 584
e 430 585
e 249 430
e 152 430
e 257 586
e 162 238
e 163 238
e 397 587
e 397 588
e 460 589
e 504 540
e 504 590
e 168 515
e 512 591
e 210 324
e 131 592
e 202 426
e 509 561
e 24 593
e 81 593
e 168 516
e 168 517
e 329 594
e 595 596
e 71 174
e 71 483
e 245 597
e 13 46
e 13 47
e 13 48
e 13 49
e 75 312
e 458 598
e 105 170
e 25 599
e 458 600
e 168 518
e 35 569
e 16 569
e 142 569
e 234 461
e 240 601
e 240 602
e 24 240
e 115 240
e 240 603
e 17 240
e 142 604
e 188 570
e 174 605
e 606 607
e 572 606
e 606 608
e 559 609
e 315 610
e 596 611
e 485 611
e 487 612
e 144 613
e 144 614
e 102 615
e 102 616
e 133 592
e 134 592
e 135 592
e 142 617
e 295 618
e 296 618
e 14 46
e 14 619
e 14 620
e 14 47
e 14 48
e 14 49
e 14 297
e 397 621
e 24 376
e 25 376
e 15 46
e 16 46
e 17 46
e 16 288
e 25 288
e 312 622
e 228 229
e 256 542
e 257 601
e 66 601
e 24 601
e 601 623
e 257 602
e 17 602
e 551 624
e 168 519
e 188 625
e 257 258
e 24 257
e 257 623
e 257 626
e 17 257
e 307 613
e 627 628
e 312 629
e 312 630
e 312 631
e 15 35
e 15 489
e 249 431
e 16 289
e 25 289
e 15 632
e 559 619
e 434 559
e 559 620
e 548 633
e 94 634
e 94 339
e 474 475
e 150 163
e 163 537
e 15 67
e 15 635
e 15 636
e 15 47
e 15 48
e 15 49
e 15 637
e 250 638
e 152 250
e 157 250
e 24 623
e 24 115
e 24 626
e 24 639
e 24 380
e 24 382
e 168 520
e 640 641
e 16 642
e 150 537
e 339 643
e 572 607
e 607 608
e 607 644
e 16 645
e 16 485
e 16 290
e 16 47
e 16 48
e 16 291
e 16 49
e 16 292
e 572 608
e 152 572
e 572 644
e 115 390
e 646 647
e 440 648
e 461 462
e 461 463
e 461 649
e 603 626
e 626 650
e 462 649
e 560 619
e 347 463
e 81 639
e 174 483
e 86 509
e 628 651
e 652 653
e 171 424
e 471 608
e 608 654
e 608 644
e 152 655
e 152 656
e 403 657
e 575 658
e 25 290
e 25 291
e 25 380
e 25 292
e 25 382
e 439 453
e 439 440
e 440 453
e 86 491
e 560 620
e 171 497
e 17 47
e 17 48
e 17 49
e 297 560
e 171 483
e 168 521
